108
#Comment!
LJ  -0.080047451113559404   0.1530013659074663   -0.49772038044998484
LJ  0.38842836763104627   -0.21726725254319673   0.30697090025327511
LJ  0.1290427983882671   0.35546632111791721   0.48947382177059229
LJ  -0.11581572773690063   -0.20115951437010468   -0.36820560989899048
LJ  0.23633102994410832   -0.16302515523669611   -0.23529974994109024
LJ  -0.10757521180158906   0.40912524294236174   -0.42028055464402397
LJ  0.31477782952210298   -0.49616374126582108   -0.13125648524500788
LJ  -0.28113246733366487   0.18162644345691609   0.38727070324146279
LJ  -0.45380475298387163   -0.35969744353828109   0.092034140905887088
LJ  -0.20063614890041778   0.037707402944565691   0.013115012605266615
LJ  -0.25301302236348466   0.22426974441428177   0.30223075322145038
LJ  -0.33710957111444551   0.075594753807241635   -0.035630679187603091
LJ  0.00038928772789656105   -0.37994192829184653   -0.23299386779642697
LJ  -0.42733489229228411   -0.45573190513934386   -0.42017487502470724
LJ  -0.16285070303925733   -0.46422376643863456   0.2553134828565195
LJ  -0.29486571908305398   0.32109558405576694   -0.41680511883136301
LJ  0.49776182502068234   0.13280707527935218   -0.38189665472285211
LJ  -0.29685890213216615   0.19775948882523112   -0.22030251876628745
LJ  -0.18698640727087429   -0.45772276346366741   -0.24095311259351634
LJ  -0.037311479964577225   0.068115483088072831   0.36427145743278705
LJ  -0.28637022146110142   -0.17608006517367514   -0.4019870312061542
LJ  -0.2805911262348042   0.38143177693526004   0.14812153900505859
LJ  -0.32306493419886723   0.45491048895382469   -0.013394582900552192
LJ  -0.22886960758490568   0.42543887054266283   0.0022685952939212142
LJ  0.12876107003927023   -0.22430752959142716   0.19968277123566125
LJ  0.0881544510809181   -0.19837423266181309   -0.45542870320033402
LJ  -0.31322118412501532   -0.013605412143855232   -0.068111418647924915
LJ  -0.25595850590537544   0.44410652498683351   0.079459180382862787
LJ  -0.24045962263559145   -0.35257139908095164   -0.45277777596552321
LJ  0.15471730750358242   0.22431946966342958   0.43931617588525235
LJ  -0.34286786097546784   0.22259415298395732   -0.116477587984378
LJ  -0.1590105886200045   0.07597867469043966   0.16169735615739567
LJ  -0.21916916449899126   -0.41772719925381746   0.21508082216041252
LJ  -0.13054977252665834   -0.34125469633024486   0.13288686768731606
LJ  0.21070213921068201   -0.4830319631250683   -0.26269598084272028
LJ  -0.035559731766472952   0.11929719983664112   0.16319777471055918
LJ  0.21835750613961541   0.33836985347399562   0.48565995867933121
LJ  0.29920144771235735   -0.49301397322790691   0.15873164792251951
LJ  0.12506227915743046   -0.096291327060632731   0.23013610976076818
LJ  -0.25864048564430098   -0.4335231915818058   -0.47071041504307953
LJ  0.49275253131009872   -0.072350315637182305   -0.3395778948405288
LJ  -0.12882567542042322   -0.41676981559220228   0.44252813819996945
LJ  -0.39680477042141732   -0.23729973915909344   -0.14203261343700968
LJ  -0.41165467473718592   -0.11742553975419233   -0.11929791344678806
LJ  -0.044134333565949597   -0.00026194861247224677   -0.1770443394480776
LJ  0.31947186126185256   -0.03513329955634887   0.37973851493618732
LJ  -0.3319671676939383   0.4499031919686472   0.076813664582416771
LJ  0.062978214539194277   0.47675873844253952   -0.29516417134529199
LJ  -0.43117726220141878   -0.23487258744926079   -0.49604344905574926
LJ  -0.1186964038291812   -0.19706034083530211   0.37603687371438455
LJ  0.43867967545053621   0.22492943916523442   -0.29330741801559057
LJ  0.45304965407759851   -0.40685463415862932   0.28122152071703332
LJ  -0.019436785194481151   0.051326768321107184   -0.34839310940103663
LJ  -0.12623309112073011   0.4521691549279897   0.0024912090681351987
LJ  0.41737733298675928   0.099252486182220059   0.022754265576111529
LJ  -0.4899504574671753   0.4598294487298164   0.39616666185898303
LJ  0.16535487924752126   0.47236806957641109   -0.31177380128499999
LJ  -0.42370538709010219   0.44490813428675607   -0.055358985260862949
LJ  0.015166337828358859   -0.075883821335878662   0.39128119977829862
LJ  0.33231080201875268   0.17198687949060665   -0.03399513359739216
LJ  -0.18331864742277532   -0.089121516660111824   0.12213989139854066
LJ  0.41978972150894278   0.051925871201639127   0.17495464422452986
LJ  0.026744373959977759   0.19040323914095819   0.38554462450085508
LJ  -0.14008175415744828   -0.1579463823869795   0.16754258667141272
LJ  0.37838933881350673   0.36954011200392012   -0.19279476363129616
LJ  -0.091503222945013188   -0.31820984571737582   -0.18055609597706593
LJ  0.022276166997491777   0.18844179588939125   -0.26266729569051206
LJ  -0.21537830624117763   -0.29030356182581585   0.47818990495785085
LJ  -0.20185881116845292   0.37707153195725385   0.34137650301214895
LJ  -0.1324410816646634   0.085068706042161171   -0.16588901058133285
LJ  -0.48702214000231103   -0.15675743082227223   0.37779824729770434
LJ  0.16805028861338264   -0.13536814195582741   0.48833461804681377
LJ  0.28592350571756237   0.26065346428436587   -0.21207356481741271
LJ  0.15168583318710027   -0.28118652408892447   0.29992650262297282
LJ  -0.45572837297859331   0.38328394176068098   0.096148001718664236
LJ  -0.205506327310298   0.25567311923107883   -0.36172848795917911
LJ  0.061432188264271083   0.48897389640837791   -0.48265782482192537
LJ  -0.12737629196009601   0.15056517152602444   0.13343914569252432
LJ  0.25648081335175343   -0.48362752434736378   -0.19172301576020112
LJ  -0.20884873787444205   0.22709231832925558   -0.16814067481614228
LJ  -0.10865389123137262   -0.2622821436718713   -0.4815113531363443
LJ  -0.019206985104200231   -0.18534826027377874   -0.44216534010357172
LJ  -0.25948924014570518   -0.20200628900392334   -0.32807564328400302
LJ  0.06689336938235324   -0.31888150888392996   -0.25748552062763741
LJ  0.070678856221891698   -0.28450577232482882   -0.33669424027355033
LJ  0.23714362328679428   0.3496032192119668   -0.1755661513792531
LJ  0.05996297446958742   0.0040400825580034719   0.10518648904139466
LJ  -0.057309407781111786   -0.19229845838222095   -0.31878178560957882
LJ  -0.088273648603647434   -0.034756421799666655   0.15948494021430204
LJ  -0.31165372533393532   0.1994000960915617   0.21844076933781303
LJ  0.30762481824142601   0.23861574929436036   -0.12903882094049515
LJ  -0.23564113952015847   0.052798793808097044   0.30386472026838923
LJ  0.0079427175570665094   0.15665427920348712   -0.34795649847773663
LJ  0.17040835240252866   0.20983883047417426   0.34791274269493899
LJ  -0.20585377136685937   0.35073230300604225   -0.28625424776792846
LJ  0.0087661415261568558   -0.15638929264747167   0.3830547939078604
LJ  0.047899702113122888   0.054696962951334992   0.27048398102379601
LJ  -0.12337756694802697   0.25847812348465843   0.43458335800701781
LJ  0.071161989122913605   -0.37777851913260602   0.32752428991482541
LJ  0.14241052203250362   -0.17035144830072471   -0.10931393676341049
LJ  0.01740872317571247   -0.21444862223409256   0.43326701588111366
LJ  0.27262621677495247   -0.16964594486440029   0.14357005621852839
LJ  -0.47410094670566394   0.061398327431336212   -0.41246245643984253
LJ  0.3969917576408446   -0.44797743308566723   -0.12525865157537569
LJ  -0.035517957736475946   0.35880163820137601   0.41610227463808802
LJ  -0.035720807683382684   -0.46454396394362785   -0.26606201963239051
LJ  0.21077155348936163   0.43942334773051384   0.44413883108959012
LJ  0.49176158832490413   -0.24627921437057348   -0.40999315023541616
