108
#Comment!
LJ  -0.079945569171436845   0.15290845913158996   -0.49774976281665811
LJ  0.38842370252685648   -0.21736452350512744   0.30709467006907265
LJ  0.12901142352079259   0.35535786516672313   0.48947581535457146
LJ  -0.11576834015718754   -0.20108873984249634   -0.36811203664211151
LJ  0.23601692644717051   -0.16301795850683654   -0.23515928298116714
LJ  -0.107617865986813   0.40916090919193004   -0.42022775958132724
LJ  0.31473994715080889   -0.49650566071351399   -0.13131769875274982
LJ  -0.28131632130641299   0.18171264684022959   0.3871908793725789
LJ  -0.45359360507782948   -0.35944187525331822   0.091990961872181462
LJ  -0.20075699495121155   0.037808393624388904   0.012979202320917708
LJ  -0.25283828462578373   0.22440626203937283   0.30211197127555262
LJ  -0.33717155219102629   0.075544088148864846   -0.035850671197474288
LJ  0.00030857157829885238   -0.37998302365324771   -0.23283931541676492
LJ  -0.42719020823604859   -0.45575695845329928   -0.42009375812040362
LJ  -0.16273548137356064   -0.46430509083145921   0.25535009897918776
LJ  -0.29475778985452211   0.32115075314744052   -0.41673679613027259
LJ  0.49782198737316607   0.13291007846875061   -0.38201162236359126
LJ  -0.29700921920725842   0.19774383168859896   -0.22022528656987767
LJ  -0.18706031255202221   -0.45778779640088374   -0.24092024988590854
LJ  -0.037197546494520554   0.068165878265943336   0.36418377505891719
LJ  -0.28650144280940321   -0.17617053704235977   -0.40209876708928299
LJ  -0.28039190505090328   0.38151458982769948   0.14803146206755635
LJ  -0.32293492010211727   0.45488466569264241   -0.013200384782658031
LJ  -0.22884702214241073   0.42544609425507618   0.0021958266408626027
LJ  0.12862532767530416   -0.22418632023476237   0.19963368491691308
LJ  0.08788666732347962   -0.19839849808409862   -0.45535563319654015
LJ  -0.31322502868056296   -0.013528741367604302   -0.068039917276147124
LJ  -0.25602323682847622   0.44421014259478131   0.079447436519759759
LJ  -0.24060285407498525   -0.35258730366698759   -0.45267664939260638
LJ  0.15474791971501478   0.22424745508832505   0.43918969430784471
LJ  -0.34262224666291918   0.22276934735866735   -0.11629020005874369
LJ  -0.15906914551951501   0.075839100857728117   0.16173783652325963
LJ  -0.21914642878043125   -0.41796900762386202   0.21515580116515937
LJ  -0.13058143442981557   -0.34146607090248998   0.13279957291649166
LJ  0.21067595456769808   -0.48295550285664329   -0.26267897637106891
LJ  -0.035409948995684927   0.11937068620014619   0.16308062897544046
LJ  0.21818404541158085   0.33850384933851302   0.4855674425536729
LJ  0.29930315381106293   -0.49292122352513701   0.15863914997747613
LJ  0.12521431639090916   -0.096255663080496823   0.22995925043882773
LJ  -0.25860250745889352   -0.43371411237581436   -0.47076311047424513
LJ  0.49296186102381856   -0.072397781680872172   -0.33957266779958256
LJ  -0.12894925419809483   -0.41676826624093816   0.44258938924078095
LJ  -0.39673073321773406   -0.23728555247136587   -0.14216983689351362
LJ  -0.41164810747313546   -0.11734771000446326   -0.11939013344305918
LJ  -0.044000685317358089   -0.00018645990846685294   -0.17674059475591247
LJ  0.3195204588531832   -0.035168256650058974   0.37993279435138161
LJ  -0.3319992761912709   0.44989186884083487   0.076804341173809548
LJ  0.062811775690622892   0.47658558258132083   -0.29524617702592448
LJ  -0.43130073265975399   -0.23474130230708642   -0.49613861631354617
LJ  -0.11875556599100029   -0.19696870327702098   0.3760413258438014
LJ  0.43864392224657928   0.22488682087703346   -0.29337804969430509
LJ  0.45296021691362715   -0.40679217513710664   0.28127779938124503
LJ  -0.019420061456331055   0.051431094467719353   -0.34831976506761847
LJ  -0.12599608646836641   0.45202855995594265   0.00259831103112245
LJ  0.41725945879598092   0.099243209468432098   0.022894932242070471
LJ  -0.48995132339449393   0.46000605445557979   0.39633857214521739
LJ  0.16536953609693023   0.47234612966129114   -0.31172007276097591
LJ  -0.42384116048617609   0.44502418127683807   -0.055358586932602531
LJ  0.01527501602784798   -0.075773471927341643   0.39148625749884047
LJ  0.33222396406909677   0.17209664457289001   -0.034040660026505382
LJ  -0.18341249988864858   -0.0890930035098106   0.1222098036123799
LJ  0.41972162968807225   0.051771850663565565   0.1747993658876697
LJ  0.026955620845491728   0.19049861621367309   0.38550459837642986
LJ  -0.14026254326178603   -0.15807290013863895   0.16744373589019948
LJ  0.37867747965812515   0.36954727998528486   -0.19273636754065809
LJ  -0.091403372659038112   -0.31839844328169176   -0.18070190500792938
LJ  0.022198463961675172   0.18860731550066517   -0.26258415087237169
LJ  -0.21538454392962997   -0.2902295077978384   0.47811001918919632
LJ  -0.20184718278808478   0.37698336653690367   0.34131325292365733
LJ  -0.13246455366110418   0.085129838716282755   -0.16595163463360268
LJ  -0.48690915216705877   -0.15683465898580473   0.37778728224756103
LJ  0.1679785004243099   -0.13542796321342665   0.48819062533696073
LJ  0.28584841888577484   0.26048478849009449   -0.21212394875325524
LJ  0.15162661607361017   -0.28105537165063404   0.29998304502259815
LJ  -0.4557193818484338   0.38341210009227467   0.096208746052369357
LJ  -0.20559416262264565   0.2559047613256607   -0.36178084456639159
LJ  0.0614987297153907   0.48894894452743498   -0.48263264892459412
LJ  -0.12738928619993753   0.15070033515571482   0.13344029981886324
LJ  0.25652436109750509   -0.48370107848168786   -0.19176599583904158
LJ  -0.20884276623108378   0.22716848104528628   -0.16798267274437895
LJ  -0.108755216534618   -0.26232982458025383   -0.48152757700306087
LJ  -0.019134070025264009   -0.18530302444695429   -0.4420669322729735
LJ  -0.25965362781250145   -0.20201914736803278   -0.32808316944367338
LJ  0.066844213794798366   -0.31894808897248955   -0.25755473669806905
LJ  0.070508926006715628   -0.28467500980445659   -0.33677900502054547
LJ  0.23706755140535021   0.34965418775276852   -0.17554965536819814
LJ  0.060131197919683077   0.0039665243908165284   0.10512841649552801
LJ  -0.057290090349243136   -0.19247534607806488   -0.31862129550144569
LJ  -0.088341945902577212   -0.034964104449036644   0.15956577323290402
LJ  -0.31175588453288888   0.19943188186516653   0.21815071300566066
LJ  0.30748554319407878   0.23853396611683886   -0.12915120789684825
LJ  -0.23567891811131489   0.052707205512833213   0.30405067890441462
LJ  0.0080529539756484404   0.15659981323587771   -0.3478652941466347
LJ  0.17040051134202377   0.20964323594213041   0.34804827737808786
LJ  -0.2057463125333602   0.35065770227024806   -0.28623377976724484
LJ  0.0088002197549192553   -0.15636011564878369   0.38303820835365154
LJ  0.047847986725633812   0.054584865585823115   0.27053326201130029
LJ  -0.12324489355939001   0.25836886365412443   0.43449778696426872
LJ  0.070862679537383413   -0.37782139430473094   0.32773280949948508
LJ  0.14255188784254852   -0.17054533917858622   -0.10927206511231255
LJ  0.017187831751185611   -0.21455137259727022   0.43324494081884113
LJ  0.27246901617436536   -0.16955317310066637   0.14350472383137799
LJ  -0.47417338405722326   0.061516916011430903   -0.4124192256206482
LJ  0.39697388998834227   -0.44799890969827311   -0.12515224832909996
LJ  -0.0354690191980023   0.35905567551496687   0.41596969272097062
LJ  -0.035709759764658663   -0.46454541421936846   -0.26625483224755908
LJ  0.21083358960759274   0.43946392112087834   0.44439776033918749
LJ  0.49183053639051055   -0.2460072654648762   -0.41021140727972277
