108
#Comment!
LJ  0.39162044577368704   -0.47704679906499242   -0.21691680635724833
LJ  0.12018947895857975   -0.48297841022653765   -0.45304098747458599
LJ  0.32510418519642764   -0.031904355781533895   0.33279426070308499
LJ  -0.43937227811087459   0.3550641229538874   -0.23226616137512598
LJ  -0.38199239692151277   -0.22887693298710349   -0.27299450190140706
LJ  -0.49077234114324297   0.17284009761549671   -0.35287630911487944
LJ  0.35112775545393454   -0.41001330280124765   -0.45429768118714825
LJ  -0.089849372749071982   -0.013484754222277462   -0.21041778301202813
LJ  0.10164961061029   0.32156291716246044   -0.28942711463133863
LJ  0.3909862658750049   0.2716729692661643   0.14416283371478567
LJ  0.1020808763724744   -0.22461547933974563   0.2458201664929619
LJ  -0.36219676570633813   -0.049290812054919281   -0.094022331760423503
LJ  -0.21533652826825952   0.03892165816687547   0.36381317666286928
LJ  0.051040051654798843   -0.039169881168644033   0.00079093404013064368
LJ  0.23378791483876626   -0.029801422254201713   -0.44930570964078792
LJ  0.35133921988745315   -0.14288638227213685   0.12500510195760633
LJ  0.32177559729422162   0.12210045478079035   -0.31096623265773038
LJ  -0.078888057537863446   -0.023736018901888409   -0.49456860597854635
LJ  -0.30912330857802972   0.26168447984347287   -0.46741650122656725
LJ  0.40818716972005864   -0.47316839243499598   0.31541574173569481
LJ  -0.0021024825744421312   0.35880660373465612   0.17850659339869918
LJ  -0.43551877004050693   -0.059199358866318913   -0.36135986712248858
LJ  0.084374155318179059   0.32853985522614126   -0.024742003615077654
LJ  -0.20058710992942363   0.12836753485813182   -0.085879416584747084
LJ  0.052775423987389485   0.15197299884033641   -0.11524853797831357
LJ  -0.26276850821296421   0.18913316540692615   -0.27436089431085547
LJ  -0.031641443510609102   -0.36116249256127286   0.42494743598113971
LJ  -0.20709483242960097   -0.26944894247210976   -0.18146869279758712
LJ  0.10449702232308603   -0.43115794248645284   -0.069579668942171338
LJ  0.41633562488908865   -0.23011009612870209   0.31287205993137807
LJ  0.47509721771394769   -0.16478092542084427   -0.13365460673481241
LJ  0.12949336394270977   -0.49219258199159116   0.30636456685131991
LJ  -0.088147671602598746   0.27125780750994277   -0.18341899116989774
LJ  -0.40490933866450829   -0.32435126396354774   -0.094748148264914553
LJ  0.1283718286824686   0.14557605561210571   -0.40360386396985565
LJ  0.26309780107440423   -0.072704177277510537   -0.064549670589952937
LJ  -0.20976837898241385   0.40381692042685985   0.15071216120719219
LJ  -0.28472972727046092   0.42008548485393288   -0.34871226112524734
LJ  -0.088499373039538934   0.44106133450477286   -0.036977055845445479
LJ  -0.24587313493044044   -0.46366989837539213   -0.17915746544539635
LJ  -0.070665865936809014   0.13018916523645738   -0.38164830894567447
LJ  -0.34832624122284428   0.072218976019514769   0.055387890244345823
LJ  -0.44957435163864695   0.10428750219892313   0.21569150640557194
LJ  -0.40087741621919748   -0.30915438214736407   -0.49032022599845954
LJ  0.088724571999823393   0.13148961771842227   0.28314703079861003
LJ  -0.02033466404143611   -0.274640918198715   -0.033856624925543553
LJ  -0.21862385376932869   -0.21095987233380195   0.11661719173441086
LJ  -0.041555501060841403   0.45330872185233284   -0.21599544296055068
LJ  -0.087386365935492663   0.02706955563464224   0.18475262982179333
LJ  0.31917083414245051   0.17507690196996276   -0.1079139261786223
LJ  -0.49523796437275974   0.038194804082253821   -0.20856683927763578
LJ  0.075878164226666628   0.26296884087350569   0.42890470926833496
LJ  -0.20614890093585791   -0.13974655091965271   -0.35691198780382144
LJ  0.40743488112825504   -0.22843632726038926   -0.47390141122750296
LJ  -0.41435271047429933   0.31494638307640022   0.17139986699545826
LJ  0.45382857191340592   0.48449054841568939   0.13697211178343877
LJ  -0.39789943761689461   0.17087510273258294   0.38181502687372237
LJ  0.36208898642853582   0.33304260657936224   -0.32313969927890801
LJ  0.49170069096278873   0.33898290423396465   0.33408353911905037
LJ  -0.10436100724175668   0.22597020861528799   0.309431909630768
LJ  0.34739595380592203   0.15617626338208529   0.323266010059581
LJ  0.1673318222842114   -0.24657881665721226   -0.0022454113433638344
LJ  0.22370531982826605   0.37799899101555118   -0.14464099058965377
LJ  0.45234015686774126   0.041996416567404944   0.49288553309346567
LJ  -0.18343056220125223   -0.3970693663819817   0.21752124603542022
LJ  0.33956117260675772   -0.095857823545892881   -0.27548737473000862
LJ  0.18479736981783576   -0.055919223476188586   0.17400205915519207
LJ  -0.27783765060917398   0.3259357087933511   -0.11275995361529213
LJ  -0.39395332904983055   0.44580781746163056   -0.012830498488178407
LJ  0.20489799481729129   0.11247445075279529   0.09039829967991625
LJ  0.26591445451727802   -0.34834028318099741   0.16221443979534456
LJ  -0.42348100610213452   -0.44934679590049675   -0.28249123477439986
LJ  0.17362571863736448   0.0021315703227211438   -0.2185338234394065
LJ  -0.48189972726282149   0.44837572120286162   -0.45857482549318435
LJ  0.15268704902283395   -0.4405995704017926   -0.26696612636665795
LJ  0.24166166581643519   -0.25878458542066374   -0.37049231540235561
LJ  0.41136970117409521   0.062503153919494153   0.059007300870527121
LJ  0.11457742713332246   -0.23103782690993338   -0.2041367622329423
LJ  -0.3534568242899867   -0.25186254304434158   0.29283847401067592
LJ  0.079035790947008133   -0.058827225538973682   0.36427643509055413
LJ  0.19558370490732319   0.29367557907981312   0.19142009287658943
LJ  -0.3064415720273081   -0.07055107979156762   0.20081653651845305
LJ  0.34713655681314265   0.24301092185982767   0.48359057483433204
LJ  -0.20418684219091882   -0.20074614687443312   0.43781791578274637
LJ  -0.45983748935176871   0.19708720862602014   -0.063596396564621432
LJ  0.39166171030163804   -0.36399784164159654   -0.019624349106262168
LJ  -0.079747021962255041   -0.21354158319866745   0.26625802561272749
LJ  0.22142519176802947   -0.28879402143175575   0.41890328257064829
LJ  -0.25065779671179222   -0.36541221843789584   -0.37167910028563583
LJ  -0.37759493634281127   -0.47501161963603306   0.3334149711208369
LJ  0.29060258832217051   -0.31150212787235915   -0.19248090873191187
LJ  -0.15522766441778985   -0.092358431184729653   -0.0049224522017813502
LJ  0.18225724852660199   0.47738862120663522   0.081814343399703726
LJ  0.40225483990292343   0.41052170367621948   -0.034808914965055733
LJ  -0.38359904125433469   -0.40333560114867045   0.092153720446010723
LJ  -0.42037389860560204   -0.18576785711490365   0.045668041887296965
LJ  -0.22252504788812449   0.487000097313048   0.49248806175786786
LJ  -0.052628446969260244   0.43147297563407305   0.39644937416752529
LJ  0.28379066288487537   0.37197156866849546   0.36747264594395807
LJ  -0.082292388993434926   0.19720277065624503   0.071114321542113834
LJ  -0.25919919270224689   0.18522282244941149   0.20513511405098961
LJ  -0.39462104593623004   -0.090133923190177725   0.43806548127651623
LJ  -0.036369924124255867   -0.3630502439257321   -0.35915164304534147
LJ  -0.18704163814503807   -0.392621062351378   0.017074156161222671
LJ  -0.27742788914799471   0.3432794326859227   0.32741854249877234
LJ  -0.063687523599933821   0.3627171290714355   -0.4207704214917608
LJ  -0.31268407140461962   0.07447554638658592   -0.44696143744345684
LJ  0.049346822759284314   -0.38426627864816476   0.1484938328047937
