108
#Comment!
LJ  0.30958246984928556   -0.28973771034060153   -0.49125513059515447
LJ  -0.096731792428375471   0.28366007763490364   0.2503384464348824
LJ  -0.048288804545522153   -0.041871085619000679   0.020018796134568129
LJ  0.42776786937063843   -0.17477557960213591   0.13736387360071892
LJ  -0.092777339572792814   0.24987199411757846   -0.15275943111744633
LJ  -0.22833116047916502   -0.26246370333714719   -0.24102097085985871
LJ  0.42645952692390954   -0.058308045183237824   -0.23565877566515483
LJ  0.3951582728543267   -0.40195934874129924   0.34180816920234258
LJ  -0.27337722358198902   -0.059671914427966335   0.1480455298082459
LJ  0.012209120423619641   -0.1691960631356462   -0.16182476741895294
LJ  -0.39145504494217287   0.37285686605775042   -0.027329873842836399
LJ  -0.12260333929413762   -0.44199790671578643   -0.40314736558852898
LJ  -0.48455249152266627   -0.071769975562445035   0.38241656245429995
LJ  -0.25793317648032921   -0.1963762666193701   -0.48877095355647093
LJ  -0.40202394538821667   0.11409544703656931   -0.1890034452396798
LJ  -0.14682934633132633   0.4528936583098811   0.42962618578616746
LJ  0.21657260345232396   0.13158272349536004   0.42837824002120373
LJ  -0.30893068634378068   0.34540609425425334   0.38077827261664465
LJ  -0.26566459312297425   -0.21643323091691474   0.29321670608630873
LJ  0.10313997552759063   0.44816206876932568   -0.059937629873484784
LJ  0.40912666971887773   -0.38201354775961854   0.086805929016122052
LJ  -0.075517876098419146   -0.2275875433548338   -0.38143975038850103
LJ  -0.15795246216436179   -0.063041323078607409   -0.2740267606292095
LJ  -0.08821955589084951   -0.24024510742791771   0.14355029777875525
LJ  -0.49842226183619515   0.43168155317329898   0.3289330418791907
LJ  -0.22494813531802146   0.29833582163751454   0.098800186570675672
LJ  0.12745402414958421   -0.4728395933118818   0.49599321408069807
LJ  0.31580974578998849   -0.077942788025548715   -0.42388793629849397
LJ  0.49276394275141583   -0.30660943952069003   -0.250503317837866
LJ  -0.4825624562150696   -0.45796180026321331   -0.054914505693602525
LJ  -0.025383863953618468   0.45346350027016336   -0.22349544292867493
LJ  -0.40383352380804283   0.11939091646560358   0.38772585200123005
LJ  -0.11766402912396351   0.36971491497934178   -0.37023884287672426
LJ  0.29861168841859292   0.41718577275081503   -0.20762038931775106
LJ  -0.39884140554007824   -0.30501690743124926   0.17003984653726942
LJ  -0.14052100885731403   -0.34925783940399402   0.40658181208408833
LJ  0.16948075257959858   -0.37197743146771906   -0.16366058246453233
LJ  0.17859335067535181   0.25651970331365848   -0.15488883146513593
LJ  -0.21880731198564837   -0.15651179370246429   -0.057199598990831005
LJ  0.26628761701828713   -0.44039287694267326   -0.35993824829897553
LJ  0.39849321867154835   0.25011169101893405   -0.30370278669427281
LJ  0.23286165154766769   0.28928182934653202   0.042945539118547142
LJ  -0.28514797374309442   0.31492495552778255   -0.19723354084133815
LJ  -0.028889942025534261   0.44049600511089454   0.13936584863585486
LJ  0.21049326262439491   -0.059620409012048924   -0.14279561728980672
LJ  0.10235677258746914   -0.33864698974685498   0.11273314223257541
LJ  0.27595233662010876   -0.24036774040664982   -0.26795962072053059
LJ  0.35703381242975146   0.1849214450911702   0.17396916484802857
LJ  -0.43484803025472502   0.18496035852761442   -0.42549898839945477
LJ  -0.38298054914972518   0.16679473847315421   0.030194829421300657
LJ  -0.20444492915630336   0.19016249315508679   0.48551960727470994
LJ  0.10191826226642198   0.34754242321567363   0.2653765220192329
LJ  0.14477386085066304   0.063269046538272089   0.034175736243261375
LJ  -0.060465898093852187   -0.038494198344365793   0.23221124320443157
LJ  -0.014145632439709619   0.12927752735444481   0.15870830213192991
LJ  0.12868065061058229   0.42004173744387668   -0.33953614392471848
LJ  -0.15989860360629757   0.44851025372716352   -0.0050630509195152742
LJ  0.23300830893336091   -0.098280369470893372   0.11952490177120353
LJ  -0.094962619909915988   -0.15204354338983336   0.40601986118423533
LJ  0.40190111220883168   0.065044166657840394   0.47270018887628013
LJ  0.27732558199800422   -0.27251046093302927   0.22632006443164085
LJ  0.43144898500479756   0.23887793795253151   -0.038083154068040422
LJ  -0.46670136889413283   0.058204795753294403   0.17459085909081584
LJ  0.030637533940404769   0.25036325296092121   0.0077310851221272158
LJ  -0.25134253353245928   0.0096770212858626106   0.36668311628846167
LJ  -0.34177752636402503   -0.42890232881834539   0.36483804312177892
LJ  -0.20516463544193689   0.10883736254314016   0.21930900947683041
LJ  0.045031379123045667   -0.37920151292347942   -0.31646607087916995
LJ  -0.31853448868242779   0.011295324812955266   -0.42805477367580841
LJ  -0.3795465579850279   0.46248784769682733   0.1424261321222362
LJ  -0.070737402582882553   -0.3635263932354727   -0.067508789749661194
LJ  -0.18551727188809761   -0.41953544144540444   0.18191290437962315
LJ  0.22338670198091623   -0.071089209761797431   0.394791596067184
LJ  0.48636238325057007   -0.48390901407475106   -0.43195319863461834
LJ  0.090366574589215432   -0.19368798107320004   0.24777959760635895
LJ  -0.22857612750029502   0.04372134302000677   -0.098995474661140143
LJ  -0.23543403705614135   -0.48219379176363791   -0.22925882520312943
LJ  -0.44046880370223979   -0.03928130390743434   -0.017385210658954615
LJ  0.19240539386916702   0.48339971232010809   0.1570298884135814
LJ  0.2906194642941784   0.38918718082319764   0.34048642143176128
LJ  -0.48001093803628392   0.44524608889273265   -0.24699824255751235
LJ  -0.4358452057603901   -0.23336459795514733   -0.057352630286567272
LJ  0.3526700267308831   0.10981687590073835   -0.14680717196256543
LJ  -0.1777906254160084   0.13696810585229874   -0.29945178113978155
LJ  -0.0084945129384696796   0.060410701987644776   -0.13681796002087104
LJ  0.034179067253717756   -0.42825573869798389   0.28508133303951294
LJ  0.071562706365458334   0.0047839536138647868   -0.31801976682637983
LJ  -0.34673497623696381   -0.093455997739005259   -0.20597574198800897
LJ  -0.068666803025531326   0.0033232637296945391   -0.44922565741696752
LJ  0.29159954725073695   0.33171998203746905   -0.45181337725496779
LJ  -0.44803266242006273   -0.27603970636039604   0.4354700734727987
LJ  0.013918889752689765   0.28955459253292137   0.4586181695351248
LJ  -0.2868523129389226   -0.37548301541087487   -0.028174536578393836
LJ  0.42355415914621009   0.39667666335833374   0.12883214430306891
LJ  0.37260579112978387   0.017804314611019594   0.037261328034499927
LJ  0.31288687079793126   0.47494033015512377   -0.021222404186889119
LJ  -0.45607537214906785   -0.14702739309475982   -0.39817197580458008
LJ  0.45033375781974255   0.24336329350911431   0.42795184536149722
LJ  0.18589327858837323   0.090373841500032151   0.22515863526580565
LJ  0.26362254288367759   0.11025641676543237   -0.35900607754537689
LJ  0.12407944469420799   -0.20842548378718476   -0.38405453112452476
LJ  0.062386691964235949   -0.28341442004787676   0.44967723706012636
LJ  0.064548089016895613   0.24421101508849608   -0.33087694555320379
LJ  -0.30104718188452328   0.40831236549298677   -0.38957658604486528
LJ  0.32727934917774393   -0.21167900279504243   -0.072761250481944512
LJ  -0.41642673719655809   0.26024342648812693   0.21244823903291352
LJ  -0.36062174023762145   -0.37178678631621531   -0.38151017027110179
LJ  0.37316171681818328   0.0019648560287409515   0.27157107776408368
